159	32	4	60	
10	10	10	10

0	0	0	0	0	0	17	1	2	3	5	6	8	9	11	15	16	24	25	26	27	28	29	30
1	1	0	1	1	6	3	14	13	4
2	0	1	4	2	9	4	23	20	19	10
3	3	0	6	3	9	4	22	21	18	13
4	0	4	4	3	8	2	19	7
5	5	0	3	5	7	2	19	10
6	0	4	5	4	1	3	20	18	17
7	2	6	0	2	9	1	10
8	0	4	3	5	1	2	21	18
9	7	4	3	0	8	2	18	17
10	0	1	5	1	7	1	12
11	6	6	6	0	2	1	12
12	3	5	0	5	8	1	17
13	2	4	0	5	2	1	20
14	8	0	3	3	3	1	18
15	6	0	3	5	9	1	19
16	3	0	4	5	4	1	18
17	0	5	4	3	2	1	31
18	3	6	0	6	2	1	31
19	8	0	4	4	2	1	31
20	4	4	0	5	1	1	31
21	0	3	2	5	7	1	31
22	0	4	8	7	4	1	31
23	2	3	0	4	9	1	31
24	0	4	5	6	7	1	31
25	0	9	3	5	7	1	31
26	1	2	0	2	10	1	31
27	0	3	1	4	3	1	31
28	2	4	8	0	2	1	31
29	5	0	3	5	4	1	31
30	5	2	0	3	6	1	31
31	0	0	0	0	0	0
